NAME : fl1577.opt.tour
COMMENT : Solution with NN for fl1577.tsp (23416)
PARAMETERS : 
 - Temperature : 251.0
 - Cooling Rate : 0.8598054571633125
 - Seed : -2693057487926318170
TYPE : TOUR
DIMENSION : 1577
LENGTH : 23416
TOUR_SECTION
1
2
3
4
5
6
7
11
37
38
39
40
41
42
43
44
45
46
55
80
79
75
78
76
77
98
97
96
58
57
56
21
20
19
18
17
16
8
9
10
1365
1366
1316
1276
1275
1229
1228
1227
1226
1315
1367
1368
1314
1313
1277
1225
1224
1279
1278
1369
1370
1371
1280
1223
1222
1281
1221
1312
1372
1373
1311
1220
1282
1310
1283
1309
1308
1219
1218
1284
1307
1285
1217
1216
1286
1306
1305
1287
1215
1214
1288
1304
1303
1289
1213
1212
1302
1290
1301
1300
1299
1298
1297
1294
1293
1292
1291
1211
1210
1209
1208
1207
1206
1295
1296
1391
1390
1389
1388
1387
1386
1385
1384
1383
1382
1381
1380
1379
1378
1377
1376
1375
1374
135
143
144
145
146
147
148
150
149
158
159
160
161
162
316
315
312
313
314
317
318
319
320
321
322
323
324
325
326
327
328
329
330
331
332
333
334
335
336
337
338
339
340
341
342
343
344
345
346
347
348
349
350
351
352
353
354
355
356
357
358
359
360
361
362
363
364
365
366
367
368
369
370
371
372
373
374
375
376
377
378
379
380
381
385
386
387
388
389
390
391
392
393
394
395
396
397
398
399
400
401
402
403
404
405
406
407
408
409
410
411
412
413
414
415
416
417
418
419
420
421
422
423
424
425
426
427
428
429
430
431
432
433
434
435
436
437
438
439
440
441
473
474
475
476
477
478
479
480
481
482
483
484
485
486
487
488
489
506
505
504
490
503
491
492
493
494
495
496
497
498
499
500
501
502
472
471
470
469
468
467
466
465
464
463
462
461
460
459
458
457
456
455
454
453
452
451
450
449
442
443
444
445
446
447
448
547
548
549
550
551
552
553
554
555
556
565
566
567
657
568
656
569
655
570
654
571
653
572
652
573
651
574
650
575
649
576
648
577
578
546
545
544
543
542
541
540
539
538
537
536
535
534
533
532
531
530
529
528
527
526
525
524
523
522
521
520
519
518
517
516
515
514
513
512
511
510
509
508
507
705
706
707
708
709
710
711
704
712
703
610
611
612
613
614
615
609
616
608
617
607
618
606
619
605
620
604
621
603
622
693
694
695
696
697
698
699
700
701
702
713
714
715
716
717
718
719
720
721
722
723
724
725
726
727
728
729
730
731
684
732
683
733
734
735
736
737
738
739
740
741
742
743
744
745
670
671
672
673
674
675
676
677
678
679
680
681
682
633
632
631
685
686
687
688
689
690
691
692
624
623
602
601
600
625
599
626
598
627
597
628
596
629
595
630
594
593
592
591
634
590
635
589
636
588
637
587
638
586
639
585
640
584
641
583
642
582
643
581
644
580
645
579
646
647
669
668
667
666
665
664
663
662
661
660
659
658
754
753
752
802
801
800
799
755
756
757
758
759
760
761
762
763
764
765
766
767
768
769
770
771
772
773
774
775
776
777
778
779
780
781
782
783
784
785
786
787
788
789
790
791
792
793
794
795
796
797
798
928
927
926
925
924
923
922
921
920
919
918
917
916
915
914
913
912
911
910
909
908
907
906
905
904
903
902
901
900
899
898
897
896
895
894
893
892
891
890
889
888
887
886
885
884
883
882
933
932
931
930
934
929
935
936
944
945
946
976
947
948
949
973
974
975
986
1007
1008
1009
1010
994
995
996
997
987
988
972
989
971
950
951
970
952
969
953
968
954
967
990
991
966
992
965
955
956
957
958
959
960
961
962
963
964
993
1015
1016
1017
1067
1068
1085
1086
1084
1069
1014
1013
1012
1049
1011
1083
1082
1081
1070
1064
1063
1071
1062
1072
1087
1088
1073
1074
1091
1075
1076
1050
1051
998
999
1000
1001
985
1002
984
977
943
978
942
979
941
940
939
938
937
1060
1059
1058
1004
1057
1056
1005
981
980
982
983
1003
1006
1055
1054
1061
1053
1052
1080
1079
1078
1077
1090
1089
1098
1099
1100
1101
1102
1140
1141
1142
1143
1144
1145
1146
1147
1148
1149
1150
1151
1152
1153
1154
1155
1156
1157
1158
1159
1160
1161
1162
1163
1164
1165
1166
1167
1168
1169
1170
1171
1172
1173
1174
1175
1176
1177
1178
1179
1180
1181
1182
1183
1184
1185
1186
1187
1188
1189
1190
1191
1192
1193
1194
1195
1196
1197
1198
1199
1200
1201
1392
1393
1483
1440
1482
1524
1525
1484
1441
1394
1442
1395
1443
1396
1397
1398
1399
1400
1448
1401
1449
1402
1403
1451
1493
1450
1492
1491
1490
1447
1446
1445
1444
1486
1485
1526
1527
1528
1487
1529
1488
1530
1489
1531
1532
1533
1534
1535
1577
1576
1523
1439
1438
1481
1522
1575
1574
1573
1572
1521
1480
1437
1520
1571
1570
1519
1436
1479
1435
1434
1478
1569
1568
1477
1433
1432
1476
1567
1518
1475
1517
1566
1565
1516
1431
1430
1429
1474
1428
1473
1515
1564
1563
1494
1536
1537
1495
1452
1404
1405
1406
1453
1496
1454
1407
1455
1408
1456
1409
1457
1410
1458
1411
1459
1412
1460
1413
1461
1503
1502
1501
1500
1499
1498
1497
1538
1539
1540
1541
1542
1543
1544
1545
1414
1415
1463
1505
1462
1504
1546
1547
1562
1561
1560
1559
1558
1557
1511
1556
1510
1555
1469
1554
1553
1552
1509
1467
1466
1508
1551
1507
1550
1549
1548
1506
1464
1416
1465
1417
1418
1419
1420
1421
1468
1422
1423
1470
1424
1425
1471
1512
1472
1513
1514
1426
1427
1103
1104
1105
1106
1107
1108
1109
1110
1111
1112
1113
1114
1115
1116
1117
1118
1119
1120
1121
1122
1123
1124
1125
1126
1127
1128
1129
1130
1131
1132
1133
1134
1135
1136
1205
1204
1203
1202
1139
1138
1137
1092
1093
1094
1095
1096
1097
1066
1065
1018
1019
1020
1021
1022
1023
1024
1025
1026
1027
1028
1029
1030
1031
1032
1033
1034
1035
1036
1037
1038
1039
1040
1041
1042
1043
1044
1045
1046
1047
1048
875
874
873
872
871
870
869
868
867
866
865
864
863
862
861
860
859
858
857
856
855
854
853
852
851
850
849
848
847
846
845
844
843
842
841
840
839
838
837
836
835
834
833
832
831
830
829
828
827
826
825
824
823
822
821
820
819
818
817
816
815
814
813
812
811
810
809
876
808
877
807
878
879
806
746
747
748
805
749
804
880
881
803
750
751
564
563
562
561
560
559
558
557
293
294
295
296
297
298
299
300
301
302
303
304
305
306
307
308
309
310
311
384
383
382
163
164
165
166
167
168
169
170
171
172
173
174
175
176
177
178
179
180
181
182
183
184
185
186
292
291
290
289
288
287
286
285
284
283
282
281
280
279
278
277
276
275
274
273
272
271
270
269
268
267
266
265
264
263
262
261
260
259
258
257
256
255
254
253
252
251
250
249
248
247
246
245
244
243
242
241
240
239
238
237
236
235
234
233
232
231
230
229
228
227
226
225
224
223
222
221
220
219
218
217
216
215
214
213
212
211
210
209
208
207
206
205
204
203
153
202
154
201
155
200
156
199
157
198
197
196
195
194
193
192
191
190
189
188
187
151
152
142
141
140
139
138
137
136
1352
1351
1350
1349
1348
1347
1332
1346
1333
1345
1344
1343
1342
1257
1334
1341
1340
1339
1338
1337
1254
1253
1255
1252
1251
1250
1336
1335
1256
1249
1248
1258
1247
1259
1246
1260
1245
1244
1261
1331
1262
1330
1329
1243
1242
1263
1241
1240
1239
1266
1326
1265
1327
1264
1328
1353
1354
1355
1356
1325
1357
1324
1358
1323
1359
1322
1360
1321
1361
1320
1362
1363
1318
1273
1319
1272
1271
1270
1269
1268
1267
1238
1237
1236
1235
1234
1233
1232
1231
1230
1274
1317
1364
63
64
65
66
67
68
69
86
87
88
89
90
91
105
104
103
102
125
124
123
122
121
120
119
126
118
127
128
129
116
117
85
84
83
70
71
72
82
92
93
99
100
101
130
131
132
133
134
115
114
113
112
111
110
109
108
107
106
95
94
81
74
73
54
53
22
23
24
25
26
47
48
51
52
59
60
61
62
49
36
50
35
34
33
32
31
30
29
28
27
12
13
14
15
-1
EOF